; benchmark generated from python API
(set-info :status unknown)
(declare-fun x_months () Int)
(declare-fun x_beta () Int)
(declare-fun y_months () Int)
(declare-fun y_beta () Int)
(assert
 (<= (- 1200) x_months))
(assert
 (>= 1199 x_months))
(assert
 (>= x_beta 0))
(assert
 (let ((?x4359 (+ x_months 24003)))
 (let ((?x3691 (- ?x4359 (* (div (- ?x4359 1) 12) 12))))
 (let ((?x2149 (ite (or (= ?x3691 4) (= ?x3691 6) (= ?x3691 9) (= ?x3691 11)) 30 31)))
 (let (($x5635 (and (= (mod (div (- ?x4359 1) 12) 4) 0) (and (distinct (mod (div (- ?x4359 1) 12) 100) 0) true))))
 (let ((?x5380 (ite (or $x5635 (= (mod (div (- ?x4359 1) 12) 400) 0)) 29 28)))
 (< x_beta (ite (= ?x3691 2) ?x5380 ?x2149))))))))
(assert
 (<= (- 1200) y_months))
(assert
 (>= 1199 y_months))
(assert
 (>= y_beta 0))
(assert
 (let ((?x5229 (+ y_months 24003)))
 (let ((?x4997 (- ?x5229 (* (div (- ?x5229 1) 12) 12))))
 (let ((?x5034 (ite (or (= ?x4997 4) (= ?x4997 6) (= ?x4997 9) (= ?x4997 11)) 30 31)))
 (let (($x5754 (and (= (mod (div (- ?x5229 1) 12) 4) 0) (and (distinct (mod (div (- ?x5229 1) 12) 100) 0) true))))
 (let ((?x4955 (ite (or $x5754 (= (mod (div (- ?x5229 1) 12) 400) 0)) 29 28)))
 (< y_beta (ite (= ?x4997 2) ?x4955 ?x5034))))))))
(assert
 (and (= x_months (- (+ (* 2020 12) 2) 24003)) (= 28 x_beta)))
(assert
 (let ((?x2312 (+ x_beta 1)))
 (let ((?x5345 (+ (+ x_months 12) 24003)))
 (let ((?x4930 (- ?x5345 (* (div (- ?x5345 1) 12) 12))))
 (let ((?x5621 (ite (or (= ?x4930 4) (= ?x4930 6) (= ?x4930 9) (= ?x4930 11)) 30 31)))
 (let (($x3611 (and (= (mod (div (- ?x5345 1) 12) 4) 0) (and (distinct (mod (div (- ?x5345 1) 12) 100) 0) true))))
 (let (($x4041 (or $x3611 (= (mod (div (- ?x5345 1) 12) 400) 0))))
 (let ((?x5386 (ite (= ?x4930 2) (ite $x4041 29 28) ?x5621)))
 (let ((?x1399 (ite (> 1 ?x2312) 1 (ite (> ?x2312 ?x5386) ?x5386 ?x2312))))
 (let ((?x3854 (ite (> 1 ?x1399) 1 (ite (> ?x1399 ?x5386) ?x5386 ?x1399))))
 (let ((?x4391 (ite (= 2 ?x4930) (ite $x4041 31 31) (ite (= 1 ?x4930) (ite $x4041 0 0) 0))))
 (let ((?x5134 (ite (= 4 ?x4930) (ite $x4041 91 90) (ite (= 3 ?x4930) (ite $x4041 60 59) ?x4391))))
 (let ((?x3266 (ite (= 6 ?x4930) (ite $x4041 152 151) (ite (= 5 ?x4930) (ite $x4041 121 120) ?x5134))))
 (let ((?x5756 (ite (= 8 ?x4930) (ite $x4041 213 212) (ite (= 7 ?x4930) (ite $x4041 182 181) ?x3266))))
 (let ((?x4464 (ite (= 10 ?x4930) (ite $x4041 274 273) (ite (= 9 ?x4930) (ite $x4041 244 243) ?x5756))))
 (let ((?x2850 (ite (= 12 ?x4930) (ite $x4041 335 334) (ite (= 11 ?x4930) (ite $x4041 305 304) ?x4464))))
 (let ((?x4356 (+ (* 365 (- (div (- ?x5345 1) 12) 1)) (div (- (div (- ?x5345 1) 12) 1) 4))))
 (let ((?x3401 (+ (- ?x4356 (div (- (div (- ?x5345 1) 12) 1) 100)) (div (- (div (- ?x5345 1) 12) 1) 400))))
 (let ((?x5446 (+ (+ (- (+ (+ ?x3401 ?x2850) (- ?x3854 1)) 730179) 0) 730179)))
 (let ((?x5137 (mod ?x5446 146097)))
 (let ((?x4920 (div ?x5137 36524)))
 (let ((?x5330 (ite (<= 4 ?x4920) 3 ?x4920)))
 (let ((?x3698 (- ?x5137 (* ?x5330 36524))))
 (let ((?x4069 (mod ?x3698 1461)))
 (let ((?x4348 (div ?x4069 365)))
 (let ((?x5381 (ite (<= 4 ?x4348) 3 ?x4348)))
 (let ((?x5019 (+ (+ (* (div ?x5446 146097) 400) (* ?x5330 100)) (* (div ?x3698 1461) 4))))
 (let ((?x5240 (+ (+ ?x5019 ?x5381) 1)))
 (let (($x4932 (or (and (= (mod ?x5240 4) 0) (and (distinct (mod ?x5240 100) 0) true)) (= (mod ?x5240 400) 0))))
 (let ((?x4360 (- ?x4069 (* ?x5381 365))))
 (let ((?x5035 (ite $x4932 31 31)))
 (let (($x3494 (>= ?x4360 ?x5035)))
 (let ((?x5058 (ite $x3494 (+ (- ?x4360 ?x5035) 1) (+ (- ?x4360 (ite $x4932 0 0)) 1))))
 (let ((?x5425 (ite $x4932 60 59)))
 (let (($x5527 (>= ?x4360 ?x5425)))
 (let ((?x5539 (ite $x4932 91 90)))
 (let (($x5347 (>= ?x4360 ?x5539)))
 (let ((?x5814 (ite $x5347 (+ (- ?x4360 ?x5539) 1) (ite $x5527 (+ (- ?x4360 ?x5425) 1) ?x5058))))
 (let ((?x5057 (ite $x4932 121 120)))
 (let (($x4385 (>= ?x4360 ?x5057)))
 (let ((?x4896 (ite $x4932 152 151)))
 (let (($x5344 (>= ?x4360 ?x4896)))
 (let ((?x5120 (ite $x5344 (+ (- ?x4360 ?x4896) 1) (ite $x4385 (+ (- ?x4360 ?x5057) 1) ?x5814))))
 (let ((?x3719 (ite $x4932 182 181)))
 (let (($x2885 (>= ?x4360 ?x3719)))
 (let ((?x5519 (ite $x4932 213 212)))
 (let (($x5164 (>= ?x4360 ?x5519)))
 (let ((?x4990 (ite $x5164 (+ (- ?x4360 ?x5519) 1) (ite $x2885 (+ (- ?x4360 ?x3719) 1) ?x5120))))
 (let ((?x1425 (ite $x4932 244 243)))
 (let (($x4369 (>= ?x4360 ?x1425)))
 (let ((?x5067 (ite $x4932 274 273)))
 (let (($x3046 (>= ?x4360 ?x5067)))
 (let ((?x5536 (ite $x3046 (+ (- ?x4360 ?x5067) 1) (ite $x4369 (+ (- ?x4360 ?x1425) 1) ?x4990))))
 (let ((?x4931 (ite $x4932 305 304)))
 (let (($x5184 (>= ?x4360 ?x4931)))
 (let ((?x4323 (ite $x4932 335 334)))
 (let (($x4551 (>= ?x4360 ?x4323)))
 (let ((?x4156 (ite $x4551 (+ (- ?x4360 ?x4323) 1) (ite $x5184 (+ (- ?x4360 ?x4931) 1) ?x5536))))
 (let (($x411 (= 0 0)))
 (let ((?x4389 (ite $x4385 5 (ite $x5347 4 (ite $x5527 3 (ite $x3494 2 1))))))
 (let ((?x5192 (ite $x4369 9 (ite $x5164 8 (ite $x2885 7 (ite $x5344 6 ?x4389))))))
 (let ((?x5122 (+ (* (ite $x411 (div (- ?x5345 1) 12) ?x5240) 12) (ite $x411 ?x4930 (ite $x4551 12 (ite $x5184 11 (ite $x3046 10 ?x5192)))))))
 (and (= y_months (- ?x5122 24003)) (= y_beta (- (ite $x411 ?x3854 ?x4156) 1)))))))))))))))))))))))))))))))))))))))))))))))))))))))))))))))))
(assert
 (let (($x5543 (and (= y_months (- (+ (* 2021 12) 2) 24003)) (= 27 y_beta))))
(not $x5543)))
(check-sat)
